
Gurobi 9.5.0 (linux64) logging started Tue Nov  7 19:18:48 2023

Set parameter LogFile to value "/lustre1/scratch/348/vsc34888/JointResearch/05.Models/06.Benchmarking/F.Representative_days_based_on_Line_Benefit_NN_OC_fy_1/RTS24_ByStages_nc100/openStarNet_RTS24_ByStages_nc100.log"
Set parameter Method to value 2
Set parameter MIPFocus to value 1
Set parameter Presolve to value 2
Set parameter RINS to value 100
Set parameter MIPGap to value 0.01
Set parameter Threads to value 36
Set parameter TimeLimit to value 604800
Set parameter IterationLimit to value 760000000
Gurobi Optimizer version 9.5.0 build v9.5.0rc5 (linux64)
Thread count: 36 physical cores, 36 logical processors, using up to 36 threads
Optimize a model with 44503 rows, 25492 columns and 122067 nonzeros
Model fingerprint: 0x8a73b1a5
Variable types: 25453 continuous, 39 integer (39 binary)
Coefficient statistics:
  Matrix range     [3e-03, 1e+03]
  Objective range  [1e+00, 1e+00]
  Bounds range     [4e-04, 3e+00]
  RHS range        [4e-04, 3e+00]
Presolve removed 21703 rows and 10864 columns
Presolve time: 0.24s
Presolved: 22800 rows, 14628 columns, 79289 nonzeros
Variable types: 14589 continuous, 39 integer (39 binary)
Found heuristic solution: objective 159.6922600
Root relaxation presolved: 22800 rows, 14628 columns, 79289 nonzeros

Root barrier log...

Ordering time: 0.01s

Barrier statistics:
 Dense cols : 39
 AA' NZ     : 1.687e+05
 Factor NZ  : 5.653e+05 (roughly 20 MB of memory)
 Factor Ops : 1.780e+07 (less than 1 second per iteration)
 Threads    : 36

                  Objective                Residual
Iter       Primal          Dual         Primal    Dual     Compl     Time
   0   6.44846138e+05 -1.23035857e+08  4.61e+00 2.76e+02  7.78e+03     1s
   1   7.90546877e+04 -3.38654669e+07  4.29e-01 9.60e-09  1.01e+03     1s
   2   2.67408877e+04 -4.04942403e+06  1.07e-02 3.13e-09  8.98e+01     1s
   3   1.79535057e+04 -2.06412393e+05  5.20e-13 1.31e-10  4.85e+00     1s
   4   3.84767162e+03 -3.85157323e+04  4.69e-13 1.91e-11  9.16e-01     1s
   5   1.27706239e+03 -1.01674352e+04  3.05e-13 4.50e-12  2.47e-01     1s
   6   6.04191529e+02 -2.76994145e+03  2.69e-13 1.22e-12  7.29e-02     1s
   7   4.03569706e+02 -8.40340482e+02  2.06e-13 1.82e-12  2.69e-02     1s
   8   2.17790619e+02 -2.72323967e+02  3.09e-13 4.55e-13  1.06e-02     1s
   9   1.49886467e+02 -6.04957183e+01  2.66e-13 9.09e-13  4.55e-03     1s
  10   1.16726338e+02  4.48828862e+01  2.26e-13 1.82e-12  1.55e-03     1s
  11   1.01337859e+02  7.98572175e+01  1.36e-12 1.82e-12  4.64e-04     1s
  12   9.77726802e+01  8.89416297e+01  1.24e-12 9.09e-13  1.91e-04     1s
  13   9.55842728e+01  9.01169635e+01  6.68e-12 9.09e-13  1.18e-04     1s
  14   9.49096997e+01  9.11622542e+01  8.59e-12 9.09e-13  8.10e-05     1s
  15   9.47524299e+01  9.15159773e+01  7.38e-12 1.82e-12  7.00e-05     1s
  16   9.43169880e+01  9.23211854e+01  1.38e-11 9.09e-13  4.31e-05     1s
  17   9.41842123e+01  9.26657333e+01  1.25e-11 1.82e-12  3.28e-05     1s
  18   9.39229829e+01  9.29072230e+01  1.59e-11 1.82e-12  2.20e-05     1s
  19   9.37876050e+01  9.31144725e+01  1.54e-11 9.09e-13  1.46e-05     1s
  20   9.37115166e+01  9.31457474e+01  1.49e-11 1.82e-12  1.22e-05     1s
  21   9.35578881e+01  9.32586022e+01  4.60e-11 9.09e-13  6.47e-06     1s
  22   9.35315631e+01  9.33082370e+01  3.97e-11 9.09e-13  4.83e-06     1s
  23   9.34867849e+01  9.33457126e+01  2.85e-11 1.82e-12  3.05e-06     1s
  24   9.34270549e+01  9.33856339e+01  1.43e-10 9.09e-13  8.95e-07     1s
  25   9.34089253e+01  9.33965767e+01  4.85e-11 9.09e-13  2.67e-07     1s
  26   9.34019070e+01  9.34013494e+01  1.87e-10 1.82e-12  1.21e-08     1s
  27   9.34018428e+01  9.34018274e+01  9.33e-10 1.82e-12  3.33e-10     1s
  28   9.34018389e+01  9.34018389e+01  1.79e-11 9.09e-13  3.33e-13     1s

Barrier solved model in 28 iterations and 0.99 seconds (0.89 work units)
Optimal objective 9.34018389e+01


Root relaxation: objective 9.340184e+01, 1894 iterations, 0.67 seconds (0.44 work units)

    Nodes    |    Current Node    |     Objective Bounds      |     Work
 Expl Unexpl |  Obj  Depth IntInf | Incumbent    BestBd   Gap | It/Node Time

     0     0   93.40184    0   13  159.69226   93.40184  41.5%     -    1s
H    0     0                     128.6447839   93.40184  27.4%     -    1s
     0     0   95.52648    0   12  128.64478   95.52648  25.7%     -    2s
H    0     0                     110.7674853   95.52648  13.8%     -    2s
H    0     0                     110.0455941   95.58720  13.1%     -    2s
     0     0   95.58720    0   12  110.04559   95.58720  13.1%     -    2s
     0     0   95.58720    0   12  110.04559   95.58720  13.1%     -    2s
     0     0   96.52206    0   10  110.04559   96.52206  12.3%     -    3s
     0     0   96.52476    0   10  110.04559   96.52476  12.3%     -    3s
     0     0   96.52476    0   10  110.04559   96.52476  12.3%     -    3s
     0     0   96.65257    0   10  110.04559   96.65257  12.2%     -    4s
     0     0   96.73660    0   10  110.04559   96.73660  12.1%     -    4s
     0     0   96.73850    0   10  110.04559   96.73850  12.1%     -    4s
     0     0   96.73935    0   10  110.04559   96.73935  12.1%     -    4s
     0     0   96.76081    0   10  110.04559   96.76081  12.1%     -    4s
     0     0   96.79011    0   11  110.04559   96.79011  12.0%     -    5s
     0     0   96.79011    0   11  110.04559   96.79011  12.0%     -    5s
     0     0   96.79031    0   11  110.04559   96.79031  12.0%     -    6s
H    0     0                     104.6539891   96.79031  7.51%     -   11s
     0     2   96.79031    0   11  104.65399   96.79031  7.51%     -   12s
   116    13  103.42723   10    6  104.65399  101.47282  3.04%   377   15s

Cutting planes:
  Gomory: 3
  Implied bound: 64
  MIR: 569
  Relax-and-lift: 5

Explored 159 nodes (55611 simplex iterations) in 16.07 seconds (19.68 work units)
Thread count was 36 (of 36 available processors)

Solution count 5: 104.654 110.046 110.767 ... 159.692

Optimal solution found (tolerance 1.00e-02)
Best objective 1.046539890595e+02, best bound 1.046539890595e+02, gap 0.0000%

Gurobi 9.5.0 (linux64) logging started Tue Nov  7 19:19:11 2023

Set parameter LogFile to value "/lustre1/scratch/348/vsc34888/JointResearch/05.Models/06.Benchmarking/F.Representative_days_based_on_Line_Benefit_NN_OC_fy_1/RTS24_ByStages_nc100/openStarNet_RTS24_ByStages_nc100.log"
Set parameter Method to value 2
Set parameter MIPFocus to value 1
Set parameter Presolve to value 2
Set parameter RINS to value 100
Set parameter MIPGap to value 0.01
Set parameter Threads to value 36
Set parameter TimeLimit to value 604800
Set parameter IterationLimit to value 760000000
No parameters matching 'relax_integrality' found
Gurobi Optimizer version 9.5.0 build v9.5.0rc5 (linux64)
Thread count: 36 physical cores, 36 logical processors, using up to 36 threads
Optimize a model with 44503 rows, 25453 columns and 106428 nonzeros
Model fingerprint: 0x33436460
Coefficient statistics:
  Matrix range     [3e-03, 1e+03]
  Objective range  [1e+00, 1e+00]
  Bounds range     [4e-04, 3e+00]
  RHS range        [4e-04, 3e+01]
Presolve removed 35208 rows and 11874 columns
Presolve time: 0.05s
Presolved: 9295 rows, 13779 columns, 34169 nonzeros

Ordering time: 0.00s

Barrier statistics:
 AA' NZ     : 2.381e+04
 Factor NZ  : 1.017e+05 (roughly 8 MB of memory)
 Factor Ops : 1.543e+06 (less than 1 second per iteration)
 Threads    : 36

                  Objective                Residual
Iter       Primal          Dual         Primal    Dual     Compl     Time
   0   1.17479494e+06 -2.18470082e+08  7.69e+00 1.40e+02  2.16e+04     0s
   1   1.42152308e+05 -3.57425437e+07  7.78e-01 4.58e-12  2.31e+03     0s
   2   3.78128201e+04 -4.76450904e+06  6.98e-02 4.30e-12  2.33e+02     0s
   3   2.44482886e+04 -8.02393125e+05  4.38e-03 1.93e-12  3.55e+01     0s
   4   1.36903553e+04 -1.26169203e+05  4.28e-05 1.36e-12  5.92e+00     0s
   5   5.25960639e+03 -2.92735067e+04  6.79e-06 9.09e-13  1.46e+00     0s
   6   1.73592288e+03 -7.95971662e+03  1.70e-06 9.09e-13  4.10e-01     0s
   7   6.84429599e+02 -1.84152665e+03  4.96e-07 4.55e-13  1.07e-01     0s
   8   3.50001349e+02 -6.68166614e+02  1.75e-07 9.09e-13  4.31e-02     0s
   9   2.01971470e+02 -1.92443584e+02  5.88e-08 4.55e-13  1.67e-02     0s
  10   1.34062149e+02  3.45454615e+01  1.34e-08 9.09e-13  4.21e-03     0s
  11   1.15958234e+02  7.93070991e+01  4.58e-09 9.09e-13  1.55e-03     0s
  12   1.09798179e+02  9.70051410e+01  1.96e-09 9.09e-13  5.41e-04     0s
  13   1.06348134e+02  1.02145134e+02  6.20e-10 4.55e-13  1.78e-04     0s
  14   1.05238407e+02  1.04007161e+02  2.25e-10 4.55e-13  5.21e-05     0s
  15   1.04836470e+02  1.04461235e+02  8.80e-10 9.09e-13  1.59e-05     0s
  16   1.04662344e+02  1.04629045e+02  8.05e-10 4.55e-13  1.41e-06     0s
  17   1.04655217e+02  1.04647392e+02  1.28e-09 4.55e-13  3.31e-07     0s
  18   1.04654026e+02  1.04653834e+02  5.79e-10 9.09e-13  8.13e-09     0s
  19   1.04653989e+02  1.04653989e+02  1.61e-10 1.82e-12  8.16e-12     0s
  20   1.04653989e+02  1.04653989e+02  8.14e-11 9.09e-13  8.16e-15     0s

Barrier solved model in 20 iterations and 0.19 seconds (0.14 work units)
Optimal objective 1.04653989e+02

Crossover log...

    1138 DPushes remaining with DInf 0.0000000e+00                 0s
       0 DPushes remaining with DInf 0.0000000e+00                 0s

     522 PPushes remaining with PInf 0.0000000e+00                 0s
       0 PPushes remaining with PInf 0.0000000e+00                 0s

  Push phase complete: Pinf 0.0000000e+00, Dinf 3.8612326e-13      0s

Iteration    Objective       Primal Inf.    Dual Inf.      Time
     546    1.0465399e+02   0.000000e+00   0.000000e+00      0s

Use crossover to convert LP symmetric solution to basic solution...
Crossover log...

       0 DPushes remaining with DInf 0.0000000e+00                 0s

     309 PPushes remaining with PInf 0.0000000e+00                 0s
       0 PPushes remaining with PInf 0.0000000e+00                 0s

  Push phase complete: Pinf 0.0000000e+00, Dinf 4.5795144e-13      0s

Iteration    Objective       Primal Inf.    Dual Inf.      Time
     874    1.0465399e+02   0.000000e+00   0.000000e+00      0s

Solved in 874 iterations and 0.29 seconds (0.18 work units)
Optimal objective  1.046539891e+02
